(set-logic QF_NRA)
(set-info :source |Benchmarks generated from hycomp (https://es-static.fbk.eu/tools/hycomp/). BMC instances of non-linear hybrid automata taken from: Alessandro Cimatti, Sergio Mover, Stefano Tonetta, A quantifier-free SMT encoding of non-linear hybrid automata, FMCAD 2012 and Alessandro Cimatti, Sergio Mover, Stefano Tonetta, Quantier-free encoding of invariants for Hybrid Systems, Formal Methods in System Design. This instance solves a BMC problem of depth 3 and uses the encoding obtained with quantifier elimination using redlog encoding. Contacts: Sergio Mover (mover@fbk.eu), Stefano Tonetta (tonettas@fbk.eu), Alessandro Cimatti (cimatti@fbk.eu).|)
(set-info :smt-lib-version 2.0)
(set-info :category "industrial")
(set-info :status unsat)
;; MathSAT API call trace
;; generated on Mon Mar 19 10:45:54 2012
(declare-fun b.EVENT.0__AT0 () Bool)
(declare-fun b.time__AT1 () Real)
(declare-fun b.y__AT0 () Real)
(declare-fun b.counter.0__AT0 () Bool)
(declare-fun b.counter.2__AT0 () Bool)
(declare-fun b.counter.1__AT0 () Bool)
(declare-fun b.event_is_timed__AT2 () Bool)
(declare-fun b.counter.1__AT1 () Bool)
(declare-fun b.counter.2__AT1 () Bool)
(declare-fun speed_loss__AT0 () Real)
(declare-fun b.time__AT2 () Real)
(declare-fun b.event_is_timed__AT3 () Bool)
(declare-fun b.speed_y__AT0 () Real)
(declare-fun b.delta__AT2 () Real)
(declare-fun b.event_is_timed__AT1 () Bool)
(declare-fun b.counter.0__AT2 () Bool)
(declare-fun b.EVENT.0__AT2 () Bool)
(declare-fun b.event_is_timed__AT0 () Bool)
(declare-fun b.y__AT2 () Real)
(declare-fun b.y__AT3 () Real)
(declare-fun b.counter.1__AT2 () Bool)
(declare-fun b.EVENT.1__AT2 () Bool)
(declare-fun b.counter.3__AT1 () Bool)
(declare-fun b.counter.0__AT3 () Bool)
(declare-fun b.time__AT3 () Real)
(declare-fun b.counter.1__AT3 () Bool)
(declare-fun b.y__AT1 () Real)
(declare-fun b.delta__AT3 () Real)
(declare-fun b.counter.2__AT3 () Bool)
(declare-fun b.counter.0__AT1 () Bool)
(declare-fun b.counter.3__AT0 () Bool)
(declare-fun b.EVENT.0__AT3 () Bool)
(declare-fun b.counter.3__AT3 () Bool)
(declare-fun b.EVENT.1__AT3 () Bool)
(declare-fun b.delta__AT1 () Real)
(declare-fun b.EVENT.0__AT1 () Bool)
(declare-fun b.EVENT.1__AT0 () Bool)
(declare-fun b.delta__AT0 () Real)
(declare-fun b.speed_y__AT2 () Real)
(declare-fun b.speed_y__AT3 () Real)
(declare-fun b.EVENT.1__AT1 () Bool)
(declare-fun b.counter.2__AT2 () Bool)
(declare-fun b.counter.3__AT2 () Bool)
(declare-fun b.speed_y__AT1 () Real)
(declare-fun b.time__AT0 () Real)
(assert (let ((.def_652 (* 49.0 b.delta__AT3)))
(let ((.def_653 (* b.delta__AT3 .def_652)))
(let ((.def_654 (* (- 1.0) .def_653)))
(let ((.def_650 (* 10.0 b.speed_y__AT3)))
(let ((.def_651 (* b.delta__AT3 .def_650)))
(let ((.def_655 (+ .def_651 .def_654)))
(let ((.def_656 (* 10.0 b.y__AT3)))
(let ((.def_658 (+ .def_656 .def_655)))
(let ((.def_659 (<= 0.0 .def_658)))
(let ((.def_686 (not .def_659)))
(let ((.def_670 (* (- 49.0) b.delta__AT3)))
(let ((.def_661 (* 5.0 b.speed_y__AT3)))
(let ((.def_671 (+ .def_661 .def_670)))
(let ((.def_672 (<= 0.0 .def_671)))
(let ((.def_687 (and .def_672 .def_686)))
(let ((.def_682 (<= b.speed_y__AT3 0.0 )))
(let ((.def_634 (<= 0.0 b.y__AT3)))
(let ((.def_685 (or .def_634 .def_682)))
(let ((.def_688 (or .def_685 .def_687)))
(let ((.def_681 (<= b.y__AT3 0.0 )))
(let ((.def_683 (and .def_681 .def_682)))
(let ((.def_676 (<= .def_671 0.0 )))
(let ((.def_677 (not .def_676)))
(let ((.def_674 (= .def_658 0.0 )))
(let ((.def_675 (not .def_674)))
(let ((.def_678 (or .def_675 .def_677)))
(let ((.def_673 (or .def_659 .def_672)))
(let ((.def_679 (and .def_673 .def_678)))
(let ((.def_662 (* b.speed_y__AT3 .def_661)))
(let ((.def_663 (* 98.0 b.y__AT3)))
(let ((.def_665 (+ .def_663 .def_662)))
(let ((.def_668 (<= .def_665 0.0 )))
(let ((.def_669 (not .def_668)))
(let ((.def_680 (or .def_669 .def_679)))
(let ((.def_684 (or .def_680 .def_683)))
(let ((.def_689 (and .def_684 .def_688)))
(let ((.def_666 (<= 0.0 .def_665)))
(let ((.def_667 (not .def_666)))
(let ((.def_690 (or .def_667 .def_689)))
(let ((.def_648 (<= 0.0 b.delta__AT3)))
(let ((.def_649 (not .def_648)))
(let ((.def_660 (or .def_649 .def_659)))
(let ((.def_691 (and .def_660 .def_690)))
(let ((.def_631 (not b.EVENT.0__AT3)))
(let ((.def_629 (not b.EVENT.1__AT3)))
(let ((.def_645 (and .def_629 .def_631)))
(let ((.def_646 (not .def_645)))
(let ((.def_692 (or .def_646 .def_691)))
(let ((.def_338 (not b.counter.0__AT2)))
(let ((.def_326 (not b.counter.1__AT2)))
(let ((.def_638 (and .def_326 .def_338)))
(let ((.def_641 (or b.counter.3__AT2 .def_638)))
(let ((.def_333 (not b.counter.2__AT2)))
(let ((.def_639 (and .def_333 .def_638)))
(let ((.def_348 (not b.counter.3__AT2)))
(let ((.def_640 (or .def_348 .def_639)))
(let ((.def_642 (and .def_640 .def_641)))
(let ((.def_60 (<= speed_loss__AT0 (/ 1 2))))
(let ((.def_57 (<= (/ 1 10) speed_loss__AT0)))
(let ((.def_61 (and .def_57 .def_60)))
(let ((.def_635 (and .def_61 .def_634)))
(let ((.def_632 (or .def_629 .def_631)))
(let ((.def_6 (not b.counter.0__AT3)))
(let ((.def_4 (not b.counter.1__AT3)))
(let ((.def_622 (or .def_4 .def_6)))
(let ((.def_626 (or b.counter.3__AT3 .def_622)))
(let ((.def_623 (or b.counter.2__AT3 .def_622)))
(let ((.def_9 (not b.counter.2__AT3)))
(let ((.def_621 (or .def_6 .def_9)))
(let ((.def_624 (and .def_621 .def_623)))
(let ((.def_12 (not b.counter.3__AT3)))
(let ((.def_625 (or .def_12 .def_624)))
(let ((.def_627 (and .def_625 .def_626)))
(let ((.def_633 (and .def_627 .def_632)))
(let ((.def_636 (and .def_633 .def_635)))
(let ((.def_463 (<= 0.0 b.delta__AT2)))
(let ((.def_446 (not b.EVENT.0__AT2)))
(let ((.def_444 (not b.EVENT.1__AT2)))
(let ((.def_460 (and .def_444 .def_446)))
(let ((.def_461 (not .def_460)))
(let ((.def_617 (or .def_461 .def_463)))
(let ((.def_618 (or b.EVENT.1__AT2 .def_617)))
(let ((.def_555 (= b.counter.0__AT3 b.counter.0__AT2)))
(let ((.def_553 (= b.counter.1__AT3 b.counter.1__AT2)))
(let ((.def_551 (= b.counter.2__AT3 b.counter.2__AT2)))
(let ((.def_550 (= b.counter.3__AT3 b.counter.3__AT2)))
(let ((.def_552 (and .def_550 .def_551)))
(let ((.def_554 (and .def_552 .def_553)))
(let ((.def_556 (and .def_554 .def_555)))
(let ((.def_614 (or .def_461 .def_556)))
(let ((.def_615 (or b.EVENT.1__AT2 .def_614)))
(let ((.def_606 (* (- 5.0) b.speed_y__AT3)))
(let ((.def_485 (* (- 49.0) b.delta__AT2)))
(let ((.def_607 (+ .def_485 .def_606)))
(let ((.def_476 (* 5.0 b.speed_y__AT2)))
(let ((.def_608 (+ .def_476 .def_607)))
(let ((.def_609 (= .def_608 0.0 )))
(let ((.def_597 (* b.speed_y__AT2 b.delta__AT2)))
(let ((.def_598 (* 10.0 .def_597)))
(let ((.def_595 (* b.delta__AT2 b.delta__AT2)))
(let ((.def_596 (* (- 49.0) .def_595)))
(let ((.def_599 (+ .def_596 .def_598)))
(let ((.def_600 (* (- 10.0) b.y__AT3)))
(let ((.def_603 (+ .def_600 .def_599)))
(let ((.def_471 (* 10.0 b.y__AT2)))
(let ((.def_604 (+ .def_471 .def_603)))
(let ((.def_605 (= .def_604 0.0 )))
(let ((.def_610 (and .def_605 .def_609)))
(let ((.def_611 (or .def_461 .def_610)))
(let ((.def_561 (= b.y__AT2 b.y__AT3)))
(let ((.def_549 (= b.speed_y__AT2 b.speed_y__AT3)))
(let ((.def_592 (and .def_549 .def_561)))
(let ((.def_589 (= b.delta__AT2 0.0 )))
(let ((.def_590 (and .def_460 .def_589)))
(let ((.def_591 (not .def_590)))
(let ((.def_593 (or .def_591 .def_592)))
(let ((.def_594 (or b.EVENT.1__AT2 .def_593)))
(let ((.def_612 (and .def_594 .def_611)))
(let ((.def_571 (= b.time__AT2 b.time__AT3)))
(let ((.def_583 (and .def_561 .def_571)))
(let ((.def_584 (and .def_549 .def_583)))
(let ((.def_585 (and .def_556 .def_584)))
(let ((.def_586 (or .def_444 .def_585)))
(let ((.def_574 (* (- 1.0) b.time__AT3)))
(let ((.def_577 (+ b.delta__AT2 .def_574)))
(let ((.def_578 (+ b.time__AT2 .def_577)))
(let ((.def_579 (= .def_578 0.0 )))
(let ((.def_580 (or .def_461 .def_579)))
(let ((.def_581 (or b.EVENT.1__AT2 .def_580)))
(let ((.def_572 (or .def_460 .def_571)))
(let ((.def_573 (or b.EVENT.1__AT2 .def_572)))
(let ((.def_582 (and .def_573 .def_581)))
(let ((.def_587 (and .def_582 .def_586)))
(let ((.def_567 (= .def_461 b.event_is_timed__AT3)))
(let ((.def_565 (= b.event_is_timed__AT2 .def_460)))
(let ((.def_568 (and .def_565 .def_567)))
(let ((.def_557 (and .def_549 .def_556)))
(let ((.def_510 (<= 0.0 b.speed_y__AT2)))
(let ((.def_511 (not .def_510)))
(let ((.def_509 (= b.y__AT2 0.0 )))
(let ((.def_512 (and .def_509 .def_511)))
(let ((.def_558 (or .def_512 .def_557)))
(let ((.def_526 (or .def_6 b.counter.0__AT2)))
(let ((.def_525 (or b.counter.0__AT3 .def_338)))
(let ((.def_527 (and .def_525 .def_526)))
(let ((.def_528 (and .def_4 .def_527)))
(let ((.def_529 (or b.counter.1__AT2 .def_528)))
(let ((.def_524 (or b.counter.1__AT3 .def_326)))
(let ((.def_530 (and .def_524 .def_529)))
(let ((.def_541 (and .def_9 .def_530)))
(let ((.def_542 (or b.counter.2__AT2 .def_541)))
(let ((.def_536 (and .def_4 .def_338)))
(let ((.def_537 (or b.counter.1__AT2 .def_536)))
(let ((.def_538 (and .def_524 .def_537)))
(let ((.def_539 (and b.counter.2__AT3 .def_538)))
(let ((.def_540 (or .def_333 .def_539)))
(let ((.def_543 (and .def_540 .def_542)))
(let ((.def_544 (and b.counter.3__AT3 .def_543)))
(let ((.def_545 (or b.counter.3__AT2 .def_544)))
(let ((.def_531 (and b.counter.2__AT3 .def_530)))
(let ((.def_532 (or b.counter.2__AT2 .def_531)))
(let ((.def_520 (or b.counter.1__AT3 b.counter.1__AT2)))
(let ((.def_518 (and .def_4 b.counter.0__AT3)))
(let ((.def_519 (or .def_326 .def_518)))
(let ((.def_521 (and .def_519 .def_520)))
(let ((.def_522 (and .def_9 .def_521)))
(let ((.def_523 (or .def_333 .def_522)))
(let ((.def_533 (and .def_523 .def_532)))
(let ((.def_534 (and .def_12 .def_533)))
(let ((.def_535 (or .def_348 .def_534)))
(let ((.def_546 (and .def_535 .def_545)))
(let ((.def_514 (* (- 1.0) b.speed_y__AT2)))
(let ((.def_127 (* (- 1.0) speed_loss__AT0)))
(let ((.def_128 (+ 1.0 .def_127)))
(let ((.def_515 (* .def_128 .def_514)))
(let ((.def_517 (= .def_515 b.speed_y__AT3)))
(let ((.def_547 (and .def_517 .def_546)))
(let ((.def_513 (not .def_512)))
(let ((.def_548 (or .def_513 .def_547)))
(let ((.def_559 (and .def_548 .def_558)))
(let ((.def_562 (and .def_559 .def_561)))
(let ((.def_563 (or .def_460 .def_562)))
(let ((.def_564 (or b.EVENT.1__AT2 .def_563)))
(let ((.def_569 (and .def_564 .def_568)))
(let ((.def_588 (and .def_569 .def_587)))
(let ((.def_613 (and .def_588 .def_612)))
(let ((.def_616 (and .def_613 .def_615)))
(let ((.def_619 (and .def_616 .def_618)))
(let ((.def_620 (and .def_444 .def_619)))
(let ((.def_637 (and .def_620 .def_636)))
(let ((.def_643 (and .def_637 .def_642)))
(let ((.def_467 (* 49.0 b.delta__AT2)))
(let ((.def_468 (* b.delta__AT2 .def_467)))
(let ((.def_469 (* (- 1.0) .def_468)))
(let ((.def_465 (* 10.0 b.speed_y__AT2)))
(let ((.def_466 (* b.delta__AT2 .def_465)))
(let ((.def_470 (+ .def_466 .def_469)))
(let ((.def_473 (+ .def_471 .def_470)))
(let ((.def_474 (<= 0.0 .def_473)))
(let ((.def_501 (not .def_474)))
(let ((.def_486 (+ .def_476 .def_485)))
(let ((.def_487 (<= 0.0 .def_486)))
(let ((.def_502 (and .def_487 .def_501)))
(let ((.def_497 (<= b.speed_y__AT2 0.0 )))
(let ((.def_449 (<= 0.0 b.y__AT2)))
(let ((.def_500 (or .def_449 .def_497)))
(let ((.def_503 (or .def_500 .def_502)))
(let ((.def_496 (<= b.y__AT2 0.0 )))
(let ((.def_498 (and .def_496 .def_497)))
(let ((.def_491 (<= .def_486 0.0 )))
(let ((.def_492 (not .def_491)))
(let ((.def_489 (= .def_473 0.0 )))
(let ((.def_490 (not .def_489)))
(let ((.def_493 (or .def_490 .def_492)))
(let ((.def_488 (or .def_474 .def_487)))
(let ((.def_494 (and .def_488 .def_493)))
(let ((.def_477 (* b.speed_y__AT2 .def_476)))
(let ((.def_478 (* 98.0 b.y__AT2)))
(let ((.def_480 (+ .def_478 .def_477)))
(let ((.def_483 (<= .def_480 0.0 )))
(let ((.def_484 (not .def_483)))
(let ((.def_495 (or .def_484 .def_494)))
(let ((.def_499 (or .def_495 .def_498)))
(let ((.def_504 (and .def_499 .def_503)))
(let ((.def_481 (<= 0.0 .def_480)))
(let ((.def_482 (not .def_481)))
(let ((.def_505 (or .def_482 .def_504)))
(let ((.def_464 (not .def_463)))
(let ((.def_475 (or .def_464 .def_474)))
(let ((.def_506 (and .def_475 .def_505)))
(let ((.def_507 (or .def_461 .def_506)))
(let ((.def_145 (not b.counter.0__AT1)))
(let ((.def_133 (not b.counter.1__AT1)))
(let ((.def_453 (and .def_133 .def_145)))
(let ((.def_456 (or b.counter.3__AT1 .def_453)))
(let ((.def_140 (not b.counter.2__AT1)))
(let ((.def_454 (and .def_140 .def_453)))
(let ((.def_155 (not b.counter.3__AT1)))
(let ((.def_455 (or .def_155 .def_454)))
(let ((.def_457 (and .def_455 .def_456)))
(let ((.def_450 (and .def_61 .def_449)))
(let ((.def_447 (or .def_444 .def_446)))
(let ((.def_437 (or .def_326 .def_338)))
(let ((.def_441 (or b.counter.3__AT2 .def_437)))
(let ((.def_438 (or b.counter.2__AT2 .def_437)))
(let ((.def_436 (or .def_333 .def_338)))
(let ((.def_439 (and .def_436 .def_438)))
(let ((.def_440 (or .def_348 .def_439)))
(let ((.def_442 (and .def_440 .def_441)))
(let ((.def_448 (and .def_442 .def_447)))
(let ((.def_451 (and .def_448 .def_450)))
(let ((.def_270 (<= 0.0 b.delta__AT1)))
(let ((.def_255 (not b.EVENT.0__AT1)))
(let ((.def_253 (not b.EVENT.1__AT1)))
(let ((.def_267 (and .def_253 .def_255)))
(let ((.def_268 (not .def_267)))
(let ((.def_432 (or .def_268 .def_270)))
(let ((.def_433 (or b.EVENT.1__AT1 .def_432)))
(let ((.def_370 (= b.counter.0__AT1 b.counter.0__AT2)))
(let ((.def_368 (= b.counter.1__AT1 b.counter.1__AT2)))
(let ((.def_366 (= b.counter.2__AT1 b.counter.2__AT2)))
(let ((.def_365 (= b.counter.3__AT1 b.counter.3__AT2)))
(let ((.def_367 (and .def_365 .def_366)))
(let ((.def_369 (and .def_367 .def_368)))
(let ((.def_371 (and .def_369 .def_370)))
(let ((.def_429 (or .def_268 .def_371)))
(let ((.def_430 (or b.EVENT.1__AT1 .def_429)))
(let ((.def_421 (* (- 5.0) b.speed_y__AT2)))
(let ((.def_292 (* (- 49.0) b.delta__AT1)))
(let ((.def_422 (+ .def_292 .def_421)))
(let ((.def_283 (* 5.0 b.speed_y__AT1)))
(let ((.def_423 (+ .def_283 .def_422)))
(let ((.def_424 (= .def_423 0.0 )))
(let ((.def_412 (* b.speed_y__AT1 b.delta__AT1)))
(let ((.def_413 (* 10.0 .def_412)))
(let ((.def_410 (* b.delta__AT1 b.delta__AT1)))
(let ((.def_411 (* (- 49.0) .def_410)))
(let ((.def_414 (+ .def_411 .def_413)))
(let ((.def_415 (* (- 10.0) b.y__AT2)))
(let ((.def_418 (+ .def_415 .def_414)))
(let ((.def_278 (* 10.0 b.y__AT1)))
(let ((.def_419 (+ .def_278 .def_418)))
(let ((.def_420 (= .def_419 0.0 )))
(let ((.def_425 (and .def_420 .def_424)))
(let ((.def_426 (or .def_268 .def_425)))
(let ((.def_376 (= b.y__AT1 b.y__AT2)))
(let ((.def_364 (= b.speed_y__AT1 b.speed_y__AT2)))
(let ((.def_407 (and .def_364 .def_376)))
(let ((.def_404 (= b.delta__AT1 0.0 )))
(let ((.def_405 (and .def_267 .def_404)))
(let ((.def_406 (not .def_405)))
(let ((.def_408 (or .def_406 .def_407)))
(let ((.def_409 (or b.EVENT.1__AT1 .def_408)))
(let ((.def_427 (and .def_409 .def_426)))
(let ((.def_386 (= b.time__AT1 b.time__AT2)))
(let ((.def_398 (and .def_376 .def_386)))
(let ((.def_399 (and .def_364 .def_398)))
(let ((.def_400 (and .def_371 .def_399)))
(let ((.def_401 (or .def_253 .def_400)))
(let ((.def_389 (* (- 1.0) b.time__AT2)))
(let ((.def_392 (+ b.delta__AT1 .def_389)))
(let ((.def_393 (+ b.time__AT1 .def_392)))
(let ((.def_394 (= .def_393 0.0 )))
(let ((.def_395 (or .def_268 .def_394)))
(let ((.def_396 (or b.EVENT.1__AT1 .def_395)))
(let ((.def_387 (or .def_267 .def_386)))
(let ((.def_388 (or b.EVENT.1__AT1 .def_387)))
(let ((.def_397 (and .def_388 .def_396)))
(let ((.def_402 (and .def_397 .def_401)))
(let ((.def_382 (= .def_268 b.event_is_timed__AT2)))
(let ((.def_380 (= b.event_is_timed__AT1 .def_267)))
(let ((.def_383 (and .def_380 .def_382)))
(let ((.def_372 (and .def_364 .def_371)))
(let ((.def_317 (<= 0.0 b.speed_y__AT1)))
(let ((.def_318 (not .def_317)))
(let ((.def_316 (= b.y__AT1 0.0 )))
(let ((.def_319 (and .def_316 .def_318)))
(let ((.def_373 (or .def_319 .def_372)))
(let ((.def_339 (or b.counter.0__AT1 .def_338)))
(let ((.def_337 (or .def_145 b.counter.0__AT2)))
(let ((.def_340 (and .def_337 .def_339)))
(let ((.def_341 (and .def_326 .def_340)))
(let ((.def_342 (or b.counter.1__AT1 .def_341)))
(let ((.def_336 (or .def_133 b.counter.1__AT2)))
(let ((.def_343 (and .def_336 .def_342)))
(let ((.def_356 (and .def_333 .def_343)))
(let ((.def_357 (or b.counter.2__AT1 .def_356)))
(let ((.def_351 (and .def_145 .def_326)))
(let ((.def_352 (or b.counter.1__AT1 .def_351)))
(let ((.def_353 (and .def_336 .def_352)))
(let ((.def_354 (and b.counter.2__AT2 .def_353)))
(let ((.def_355 (or .def_140 .def_354)))
(let ((.def_358 (and .def_355 .def_357)))
(let ((.def_359 (and b.counter.3__AT2 .def_358)))
(let ((.def_360 (or b.counter.3__AT1 .def_359)))
(let ((.def_344 (and b.counter.2__AT2 .def_343)))
(let ((.def_345 (or b.counter.2__AT1 .def_344)))
(let ((.def_330 (or b.counter.1__AT1 b.counter.1__AT2)))
(let ((.def_328 (and .def_326 b.counter.0__AT2)))
(let ((.def_329 (or .def_133 .def_328)))
(let ((.def_331 (and .def_329 .def_330)))
(let ((.def_334 (and .def_331 .def_333)))
(let ((.def_335 (or .def_140 .def_334)))
(let ((.def_346 (and .def_335 .def_345)))
(let ((.def_349 (and .def_346 .def_348)))
(let ((.def_350 (or .def_155 .def_349)))
(let ((.def_361 (and .def_350 .def_360)))
(let ((.def_321 (* (- 1.0) b.speed_y__AT1)))
(let ((.def_322 (* .def_128 .def_321)))
(let ((.def_324 (= .def_322 b.speed_y__AT2)))
(let ((.def_362 (and .def_324 .def_361)))
(let ((.def_320 (not .def_319)))
(let ((.def_363 (or .def_320 .def_362)))
(let ((.def_374 (and .def_363 .def_373)))
(let ((.def_377 (and .def_374 .def_376)))
(let ((.def_378 (or .def_267 .def_377)))
(let ((.def_379 (or b.EVENT.1__AT1 .def_378)))
(let ((.def_384 (and .def_379 .def_383)))
(let ((.def_403 (and .def_384 .def_402)))
(let ((.def_428 (and .def_403 .def_427)))
(let ((.def_431 (and .def_428 .def_430)))
(let ((.def_434 (and .def_431 .def_433)))
(let ((.def_435 (and .def_253 .def_434)))
(let ((.def_452 (and .def_435 .def_451)))
(let ((.def_458 (and .def_452 .def_457)))
(let ((.def_274 (* 49.0 b.delta__AT1)))
(let ((.def_275 (* b.delta__AT1 .def_274)))
(let ((.def_276 (* (- 1.0) .def_275)))
(let ((.def_272 (* 10.0 b.speed_y__AT1)))
(let ((.def_273 (* b.delta__AT1 .def_272)))
(let ((.def_277 (+ .def_273 .def_276)))
(let ((.def_280 (+ .def_278 .def_277)))
(let ((.def_281 (<= 0.0 .def_280)))
(let ((.def_308 (not .def_281)))
(let ((.def_293 (+ .def_283 .def_292)))
(let ((.def_294 (<= 0.0 .def_293)))
(let ((.def_309 (and .def_294 .def_308)))
(let ((.def_304 (<= b.speed_y__AT1 0.0 )))
(let ((.def_258 (<= 0.0 b.y__AT1)))
(let ((.def_307 (or .def_258 .def_304)))
(let ((.def_310 (or .def_307 .def_309)))
(let ((.def_303 (<= b.y__AT1 0.0 )))
(let ((.def_305 (and .def_303 .def_304)))
(let ((.def_298 (<= .def_293 0.0 )))
(let ((.def_299 (not .def_298)))
(let ((.def_296 (= .def_280 0.0 )))
(let ((.def_297 (not .def_296)))
(let ((.def_300 (or .def_297 .def_299)))
(let ((.def_295 (or .def_281 .def_294)))
(let ((.def_301 (and .def_295 .def_300)))
(let ((.def_284 (* b.speed_y__AT1 .def_283)))
(let ((.def_285 (* 98.0 b.y__AT1)))
(let ((.def_287 (+ .def_285 .def_284)))
(let ((.def_290 (<= .def_287 0.0 )))
(let ((.def_291 (not .def_290)))
(let ((.def_302 (or .def_291 .def_301)))
(let ((.def_306 (or .def_302 .def_305)))
(let ((.def_311 (and .def_306 .def_310)))
(let ((.def_288 (<= 0.0 .def_287)))
(let ((.def_289 (not .def_288)))
(let ((.def_312 (or .def_289 .def_311)))
(let ((.def_271 (not .def_270)))
(let ((.def_282 (or .def_271 .def_281)))
(let ((.def_313 (and .def_282 .def_312)))
(let ((.def_314 (or .def_268 .def_313)))
(let ((.def_32 (not b.counter.0__AT0)))
(let ((.def_30 (not b.counter.1__AT0)))
(let ((.def_33 (and .def_30 .def_32)))
(let ((.def_263 (or .def_33 b.counter.3__AT0)))
(let ((.def_38 (not b.counter.3__AT0)))
(let ((.def_35 (not b.counter.2__AT0)))
(let ((.def_36 (and .def_33 .def_35)))
(let ((.def_262 (or .def_36 .def_38)))
(let ((.def_264 (and .def_262 .def_263)))
(let ((.def_259 (and .def_61 .def_258)))
(let ((.def_256 (or .def_253 .def_255)))
(let ((.def_246 (or .def_133 .def_145)))
(let ((.def_250 (or b.counter.3__AT1 .def_246)))
(let ((.def_247 (or b.counter.2__AT1 .def_246)))
(let ((.def_245 (or .def_140 .def_145)))
(let ((.def_248 (and .def_245 .def_247)))
(let ((.def_249 (or .def_155 .def_248)))
(let ((.def_251 (and .def_249 .def_250)))
(let ((.def_257 (and .def_251 .def_256)))
(let ((.def_260 (and .def_257 .def_259)))
(let ((.def_70 (<= 0.0 b.delta__AT0)))
(let ((.def_51 (not b.EVENT.0__AT0)))
(let ((.def_49 (not b.EVENT.1__AT0)))
(let ((.def_67 (and .def_49 .def_51)))
(let ((.def_68 (not .def_67)))
(let ((.def_241 (or .def_68 .def_70)))
(let ((.def_242 (or b.EVENT.1__AT0 .def_241)))
(let ((.def_177 (= b.counter.0__AT0 b.counter.0__AT1)))
(let ((.def_175 (= b.counter.1__AT0 b.counter.1__AT1)))
(let ((.def_173 (= b.counter.2__AT0 b.counter.2__AT1)))
(let ((.def_172 (= b.counter.3__AT0 b.counter.3__AT1)))
(let ((.def_174 (and .def_172 .def_173)))
(let ((.def_176 (and .def_174 .def_175)))
(let ((.def_178 (and .def_176 .def_177)))
(let ((.def_238 (or .def_68 .def_178)))
(let ((.def_239 (or b.EVENT.1__AT0 .def_238)))
(let ((.def_230 (* (- 5.0) b.speed_y__AT1)))
(let ((.def_97 (* (- 49.0) b.delta__AT0)))
(let ((.def_231 (+ .def_97 .def_230)))
(let ((.def_86 (* 5.0 b.speed_y__AT0)))
(let ((.def_232 (+ .def_86 .def_231)))
(let ((.def_233 (= .def_232 0.0 )))
(let ((.def_219 (* b.speed_y__AT0 b.delta__AT0)))
(let ((.def_220 (* 10.0 .def_219)))
(let ((.def_217 (* b.delta__AT0 b.delta__AT0)))
(let ((.def_218 (* (- 49.0) .def_217)))
(let ((.def_221 (+ .def_218 .def_220)))
(let ((.def_223 (* (- 10.0) b.y__AT1)))
(let ((.def_226 (+ .def_223 .def_221)))
(let ((.def_80 (* 10.0 b.y__AT0)))
(let ((.def_227 (+ .def_80 .def_226)))
(let ((.def_228 (= .def_227 0.0 )))
(let ((.def_234 (and .def_228 .def_233)))
(let ((.def_235 (or .def_68 .def_234)))
(let ((.def_183 (= b.y__AT0 b.y__AT1)))
(let ((.def_171 (= b.speed_y__AT0 b.speed_y__AT1)))
(let ((.def_214 (and .def_171 .def_183)))
(let ((.def_211 (= b.delta__AT0 0.0 )))
(let ((.def_212 (and .def_67 .def_211)))
(let ((.def_213 (not .def_212)))
(let ((.def_215 (or .def_213 .def_214)))
(let ((.def_216 (or b.EVENT.1__AT0 .def_215)))
(let ((.def_236 (and .def_216 .def_235)))
(let ((.def_193 (= b.time__AT0 b.time__AT1)))
(let ((.def_205 (and .def_183 .def_193)))
(let ((.def_206 (and .def_171 .def_205)))
(let ((.def_207 (and .def_178 .def_206)))
(let ((.def_208 (or .def_49 .def_207)))
(let ((.def_196 (* (- 1.0) b.time__AT1)))
(let ((.def_199 (+ b.delta__AT0 .def_196)))
(let ((.def_200 (+ b.time__AT0 .def_199)))
(let ((.def_201 (= .def_200 0.0 )))
(let ((.def_202 (or .def_68 .def_201)))
(let ((.def_203 (or b.EVENT.1__AT0 .def_202)))
(let ((.def_194 (or .def_67 .def_193)))
(let ((.def_195 (or b.EVENT.1__AT0 .def_194)))
(let ((.def_204 (and .def_195 .def_203)))
(let ((.def_209 (and .def_204 .def_208)))
(let ((.def_189 (= .def_68 b.event_is_timed__AT1)))
(let ((.def_187 (= b.event_is_timed__AT0 .def_67)))
(let ((.def_190 (and .def_187 .def_189)))
(let ((.def_179 (and .def_171 .def_178)))
(let ((.def_122 (<= 0.0 b.speed_y__AT0)))
(let ((.def_123 (not .def_122)))
(let ((.def_121 (= b.y__AT0 0.0 )))
(let ((.def_124 (and .def_121 .def_123)))
(let ((.def_180 (or .def_124 .def_179)))
(let ((.def_146 (or b.counter.0__AT0 .def_145)))
(let ((.def_144 (or .def_32 b.counter.0__AT1)))
(let ((.def_147 (and .def_144 .def_146)))
(let ((.def_148 (and .def_133 .def_147)))
(let ((.def_149 (or b.counter.1__AT0 .def_148)))
(let ((.def_143 (or .def_30 b.counter.1__AT1)))
(let ((.def_150 (and .def_143 .def_149)))
(let ((.def_163 (and .def_140 .def_150)))
(let ((.def_164 (or b.counter.2__AT0 .def_163)))
(let ((.def_158 (and .def_32 .def_133)))
(let ((.def_159 (or b.counter.1__AT0 .def_158)))
(let ((.def_160 (and .def_143 .def_159)))
(let ((.def_161 (and b.counter.2__AT1 .def_160)))
(let ((.def_162 (or .def_35 .def_161)))
(let ((.def_165 (and .def_162 .def_164)))
(let ((.def_166 (and b.counter.3__AT1 .def_165)))
(let ((.def_167 (or b.counter.3__AT0 .def_166)))
(let ((.def_151 (and b.counter.2__AT1 .def_150)))
(let ((.def_152 (or b.counter.2__AT0 .def_151)))
(let ((.def_137 (or b.counter.1__AT0 b.counter.1__AT1)))
(let ((.def_135 (and .def_133 b.counter.0__AT1)))
(let ((.def_136 (or .def_30 .def_135)))
(let ((.def_138 (and .def_136 .def_137)))
(let ((.def_141 (and .def_138 .def_140)))
(let ((.def_142 (or .def_35 .def_141)))
(let ((.def_153 (and .def_142 .def_152)))
(let ((.def_156 (and .def_153 .def_155)))
(let ((.def_157 (or .def_38 .def_156)))
(let ((.def_168 (and .def_157 .def_167)))
(let ((.def_126 (* (- 1.0) b.speed_y__AT0)))
(let ((.def_129 (* .def_126 .def_128)))
(let ((.def_131 (= .def_129 b.speed_y__AT1)))
(let ((.def_169 (and .def_131 .def_168)))
(let ((.def_125 (not .def_124)))
(let ((.def_170 (or .def_125 .def_169)))
(let ((.def_181 (and .def_170 .def_180)))
(let ((.def_184 (and .def_181 .def_183)))
(let ((.def_185 (or .def_67 .def_184)))
(let ((.def_186 (or b.EVENT.1__AT0 .def_185)))
(let ((.def_191 (and .def_186 .def_190)))
(let ((.def_210 (and .def_191 .def_209)))
(let ((.def_237 (and .def_210 .def_236)))
(let ((.def_240 (and .def_237 .def_239)))
(let ((.def_243 (and .def_240 .def_242)))
(let ((.def_244 (and .def_49 .def_243)))
(let ((.def_261 (and .def_244 .def_260)))
(let ((.def_265 (and .def_261 .def_264)))
(let ((.def_75 (* 49.0 b.delta__AT0)))
(let ((.def_76 (* b.delta__AT0 .def_75)))
(let ((.def_78 (* (- 1.0) .def_76)))
(let ((.def_72 (* 10.0 b.speed_y__AT0)))
(let ((.def_73 (* b.delta__AT0 .def_72)))
(let ((.def_79 (+ .def_73 .def_78)))
(let ((.def_82 (+ .def_80 .def_79)))
(let ((.def_83 (<= 0.0 .def_82)))
(let ((.def_113 (not .def_83)))
(let ((.def_98 (+ .def_86 .def_97)))
(let ((.def_99 (<= 0.0 .def_98)))
(let ((.def_114 (and .def_99 .def_113)))
(let ((.def_109 (<= b.speed_y__AT0 0.0 )))
(let ((.def_62 (<= 0.0 b.y__AT0)))
(let ((.def_112 (or .def_62 .def_109)))
(let ((.def_115 (or .def_112 .def_114)))
(let ((.def_108 (<= b.y__AT0 0.0 )))
(let ((.def_110 (and .def_108 .def_109)))
(let ((.def_103 (<= .def_98 0.0 )))
(let ((.def_104 (not .def_103)))
(let ((.def_101 (= .def_82 0.0 )))
(let ((.def_102 (not .def_101)))
(let ((.def_105 (or .def_102 .def_104)))
(let ((.def_100 (or .def_83 .def_99)))
(let ((.def_106 (and .def_100 .def_105)))
(let ((.def_87 (* b.speed_y__AT0 .def_86)))
(let ((.def_89 (* 98.0 b.y__AT0)))
(let ((.def_91 (+ .def_89 .def_87)))
(let ((.def_94 (<= .def_91 0.0 )))
(let ((.def_95 (not .def_94)))
(let ((.def_107 (or .def_95 .def_106)))
(let ((.def_111 (or .def_107 .def_110)))
(let ((.def_116 (and .def_111 .def_115)))
(let ((.def_92 (<= 0.0 .def_91)))
(let ((.def_93 (not .def_92)))
(let ((.def_117 (or .def_93 .def_116)))
(let ((.def_71 (not .def_70)))
(let ((.def_84 (or .def_71 .def_83)))
(let ((.def_118 (and .def_84 .def_117)))
(let ((.def_119 (or .def_68 .def_118)))
(let ((.def_63 (and .def_61 .def_62)))
(let ((.def_52 (or .def_49 .def_51)))
(let ((.def_42 (or .def_30 .def_32)))
(let ((.def_46 (or b.counter.3__AT0 .def_42)))
(let ((.def_43 (or b.counter.2__AT0 .def_42)))
(let ((.def_41 (or .def_32 .def_35)))
(let ((.def_44 (and .def_41 .def_43)))
(let ((.def_45 (or .def_38 .def_44)))
(let ((.def_47 (and .def_45 .def_46)))
(let ((.def_53 (and .def_47 .def_52)))
(let ((.def_64 (and .def_53 .def_63)))
(let ((.def_39 (and .def_36 .def_38)))
(let ((.def_27 (= b.speed_y__AT0 0.0 )))
(let ((.def_24 (= b.y__AT0 10.0 )))
(let ((.def_19 (= b.time__AT0 0.0 )))
(let ((.def_21 (and .def_19 b.event_is_timed__AT0)))
(let ((.def_25 (and .def_21 .def_24)))
(let ((.def_28 (and .def_25 .def_27)))
(let ((.def_40 (and .def_28 .def_39)))
(let ((.def_65 (and .def_40 .def_64)))
(let ((.def_7 (and .def_4 .def_6)))
(let ((.def_14 (or .def_7 b.counter.3__AT3)))
(let ((.def_10 (and .def_7 .def_9)))
(let ((.def_13 (or .def_10 .def_12)))
(let ((.def_15 (and .def_13 .def_14)))
(let ((.def_16 (not .def_15)))
(let ((.def_66 (and .def_16 .def_65)))
(let ((.def_120 (and .def_66 .def_119)))
(let ((.def_266 (and .def_120 .def_265)))
(let ((.def_315 (and .def_266 .def_314)))
(let ((.def_459 (and .def_315 .def_458)))
(let ((.def_508 (and .def_459 .def_507)))
(let ((.def_644 (and .def_508 .def_643)))
(let ((.def_693 (and .def_644 .def_692)))
.def_693))))))))))))))))))))))))))))))))))))))))))))))))))))))))))))))))))))))))))))))))))))))))))))))))))))))))))))))))))))))))))))))))))))))))))))))))))))))))))))))))))))))))))))))))))))))))))))))))))))))))))))))))))))))))))))))))))))))))))))))))))))))))))))))))))))))))))))))))))))))))))))))))))))))))))))))))))))))))))))))))))))))))))))))))))))))))))))))))))))))))))))))))))))))))))))))))))))))))))))))))))))))))))))))))))))))))))))))))))))))))))))))))))))))))))))))))))))))))))))))))))))))))))))))))))))))))))))))))))))))))))))))))))))))))))))))))))))))))))))))))))))))))))))))))))))))))))))))))))))))))))))))))))))))
(check-sat)
(exit)
